HFSDDW
20	4	2
0	41	1	24
0	5	1	6
0	37	1	59
0	9	1	59
0	43	1	21
0	83	1	77
0	98	1	50
0	63	1	99
0	16	1	31
0	70	1	39
0	36	1	48
0	12	1	43
0	59	1	68
0	2	1	44
0	9	1	47
0	39	1	37
0	19	1	84
0	31	1	7
0	12	1	75
0	80	1	77
LBCmax: 501
RELDUE
-1	334	6	6
-1	258	5	9
-1	284	8	5
-1	277	6	2
-1	299	2	6
-1	288	8	4
-1	259	5	9
-1	300	5	3
-1	255	2	8
-1	304	9	2
-1	348	6	5
-1	273	4	5
-1	342	5	2
-1	348	5	3
-1	250	8	4
-1	345	9	5
-1	262	3	2
-1	313	2	2
-1	297	6	4
-1	319	5	1
DDW
281	387
209	307
267	301
249	305
257	341
253	323
220	298
240	360
232	278
258	350
292	404
257	289
294	390
331	365
245	255
338	352
246	278
250	376
267	327
274	364
